resources/org/ojalgo/optimisation/integer/markshare_5_0.mps
NAME           markshare_5_0
ROWS
 E  C1_
 E  C2_
 E  C3_
 E  C4_
 E  C5_
 N  MINIMIZE
COLUMNS
    s1        MINIMIZE             1   C1_                  1
    s2        MINIMIZE             1   C2_                  1
    s3        MINIMIZE             1   C3_                  1
    s4        MINIMIZE             1   C4_                  1
    s5        MINIMIZE             1   C5_                  1
    MARK0001  'MARKER'                 'INTORG'
    x1        C5_                 42   C4_                 94
    x1        C3_                 97   C2_                 53
    x1        C1_                 17
    x2        C5_                 99   C4_                 76
    x2        C3_                 79   C2_                 88
    x2        C1_                 75
    x3        C5_                 87   C4_                 12
    x3        C3_                 81   C2_                 43
    x3        C1_                  9
    x4        C5_                 46   C4_                  1
    x4        C3_                 57   C2_                 26
    x4        C1_                 87
    x5        C5_                 24   C4_                 50
    x5        C3_                 28   C2_                 31
    x5        C1_                 58
    x6        C5_                 85   C4_                 85
    x6        C3_                 97   C2_                 77
    x6        C1_                 79
    x7        C5_                 85   C4_                 86
    x7        C3_                 58   C2_                 10
    x7        C1_                 69
    x8        C5_                 74   C4_                  9
    x8        C3_                 44   C2_                 77
    x8        C1_                 37
    x9        C5_                 13   C4_                 86
    x9        C3_                 37   C2_                 71
    x9        C1_                 88
    x10       C5_                 48   C4_                 79
    x10       C3_                 93   C2_                 22
    x10       C1_                 75
    x11       C5_                 79   C4_                 58
    x11       C3_                  2   C2_                 76
    x11       C1_                 45
    x12       C5_                 50   C4_                 10
    x12       C3_                 77   C2_                 41
    x12       C1_                 35
    x13       C5_                 57   C4_                 83
    x13       C3_                 73   C2_                 65
    x13       C1_                 73
    x14       C5_                 44   C4_                 75
    x14       C3_                 59   C2_                 93
    x14       C1_                 26
    x15       C5_                  3   C4_                 91
    x15       C3_                 43   C2_                 50
    x15       C1_                 39
    x16       C5_                 33   C4_                 51
    x16       C3_                 64   C2_                 69
    x16       C1_                 78
    x17       C5_                 43   C4_                 89
    x17       C3_                 75   C2_                 44
    x17       C1_                 85
    x18       C5_                 58   C4_                 97
    x18       C3_                  6   C2_                 61
    x18       C1_                 58
    x19       C5_                  8   C4_                 57
    x19       C3_                  5   C2_                 58
    x19       C1_                 72
    x20       C5_                 68   C4_                 47
    x20       C3_                 78   C2_                 63
    x20       C1_                  8
    x21       C5_                 59   C4_                 42
    x21       C3_                 71   C2_                 46
    x21       C1_                 46
    x22       C5_                 23   C4_                 65
    x22       C3_                 12   C2_                 63
    x22       C1_                 11
    x23       C5_                 75   C4_                 88
    x23       C3_                 30   C2_                 13
    x23       C1_                 55
    x24       C5_                 96   C4_                 59
    x24       C3_                  7   C2_                 97
    x24       C1_                 39
    x25       C5_                 87   C4_                 22
    x25       C3_                 69   C2_                 14
    x25       C1_                 57
    x26       C5_                  7   C4_                100
    x26       C3_                 36   C2_                 45
    x26       C1_                 96
    x27       C5_                 54   C4_                 16
    x27       C3_                 73   C2_                 32
    x27       C1_                 87
    x28       C5_                 38   C4_                 70
    x28       C3_                 19   C2_                 96
    x28       C1_                 16
    x29       C4_                 70   C3_                 15
    x29       C2_                 36   C1_                 27
    x30       C5_                 72   C4_                 99
    x30       C3_                 16   C2_                 40
    x30       C1_                 26
    x31       C5_                  5   C4_                 65
    x31       C3_                 84   C2_                 10
    x31       C1_                 93
    x32       C5_                  2   C4_                 66
    x32       C3_                 55   C2_                 96
    x32       C1_                 44
    x33       C5_                 76   C4_                 85
    x33       C3_                 32   C2_                 99
    x33       C1_                 79
    x34       C5_                 63   C4_                 68
    x34       C3_                 53   C2_                 58
    x34       C1_                 12
    x35       C5_                 94   C4_                 97
    x35       C3_                 43   C2_                 87
    x35       C1_                  8
    x36       C5_                 55   C4_                 33
    x36       C3_                 21   C2_                 15
    x36       C1_                 95
    x37       C5_                 41   C4_                 80
    x37       C3_                 73   C2_                 91
    x37       C1_                  2
    x38       C5_                 39   C4_                 16
    x38       C2_                 65   C1_                 15
    x39       C5_                 19   C4_                 87
    x39       C3_                 59   C2_                  6
    x39       C1_                 38
    x40       C5_                 31   C4_                 60
    x40       C3_                 48   C2_                 96
    x40       C1_                 15
    MARK0001  'MARKER'                 'INTEND'
RHS
    RHS       C1_                987   C2_               1111
    RHS       C3_                984   C4_               1262
    RHS       C5_                991
BOUNDS
 UP bnd       x1                   1
 UP bnd       x2                   1
 UP bnd       x3                   1
 UP bnd       x4                   1
 UP bnd       x5                   1
 UP bnd       x6                   1
 UP bnd       x7                   1
 UP bnd       x8                   1
 UP bnd       x9                   1
 UP bnd       x10                  1
 UP bnd       x11                  1
 UP bnd       x12                  1
 UP bnd       x13                  1
 UP bnd       x14                  1
 UP bnd       x15                  1
 UP bnd       x16                  1
 UP bnd       x17                  1
 UP bnd       x18                  1
 UP bnd       x19                  1
 UP bnd       x20                  1
 UP bnd       x21                  1
 UP bnd       x22                  1
 UP bnd       x23                  1
 UP bnd       x24                  1
 UP bnd       x25                  1
 UP bnd       x26                  1
 UP bnd       x27                  1
 UP bnd       x28                  1
 UP bnd       x29                  1
 UP bnd       x30                  1
 UP bnd       x31                  1
 UP bnd       x32                  1
 UP bnd       x33                  1
 UP bnd       x34                  1
 UP bnd       x35                  1
 UP bnd       x36                  1
 UP bnd       x37                  1
 UP bnd       x38                  1
 UP bnd       x39                  1
 UP bnd       x40                  1
ENDATA

